{'code': [16, 13, 9, 12, 15, 3, 8, 1, 1, 7, 4, 4, 8, 17, 13, 13, 5, 10, 5, 0, 7, 19, 18, 1, 15, 2, 4
, 10, 19, 18, 13, 19, 3, 16, 19, 16, 6, 6, 2, 13, 10, 0, 19, 18, 9, 0, 9, 16, 17, 11, 12, 18, 8, 9, 
15, 6, 2, 6, 5, 11, 10, 15, 17, 13, 7, 4, 5, 5, 11, 14, 11, 3, 15, 18, 4, 2, 12, 12, 16, 17, 2, 3, 6
, 8, 7, 4, 1, 3, 8, 17, 0, 19, 4, 10, 2, 11, 6, 10, 18, 12, 16, 4, 17, 1, 2, 4, 15, 18, 1, 14, 14, 1
4, 10, 2, 5, 2, 12, 18, 19, 6, 5, 4, 8, 5, 13, 7, 6, 5, 9, 7, 15, 12, 17, 19, 14, 12, 16, 6, 15, 10,
 16, 15, 11, 12, 15, 0, 19, 7, 17, 11, 14, 7, 9, 0, 19, 16, 11, 13, 18, 6, 17, 6, 0, 14, 7, 4, 7, 1,
 15, 7, 13, 16, 9, 14, 4, 8, 3, 12, 19, 8, 15, 0, 16, 3, 5, 11, 7, 15, 1, 9, 16, 0, 1, 9, 1, 14, 8, 
3, 9, 11, 2, 8, 6, 14, 7, 1, 14, 9, 19, 3, 3, 9, 8, 16, 1, 10, 4, 6, 0, 3, 18, 19, 6, 18, 5, 12, 17,
 18, 0, 14, 15, 17, 4, 1, 10, 18, 11, 2, 0, 13], 'route': None, 'mac': [[1, 7, 7, 0, 9, 8, 6, 0, 8, 
3, 1, 3], [7, 4, 1, 4, 2, 0, 5, 0, 6, 0, 2, 3, 2], [6, 4, 1, 0, 6, 3, 0, 0, 4, 2, 2], [0, 0, 8, 7, 3
, 7, 3, 4, 2, 6, 0], [7, 3, 4, 4, 3, 1, 6, 7, 4, 1, 3, 4, 5, 4], [9, 9, 0, 2, 4, 8, 7, 7, 1, 6, 8], 
[7, 7, 4, 3, 0, 1, 1, 4, 8, 8, 5, 6, 6, 9], [0, 4, 4, 6, 8, 9, 5, 1, 1, 3, 0, 3, 4], [7, 1, 0, 3, 4,
 2, 5, 8, 8, 0, 4], [3, 8, 2, 4, 8, 6, 4, 2, 1, 1, 5, 0], [8, 4, 5, 3, 0, 4, 2, 2, 0, 3], [1, 3, 3, 
8, 6, 6, 1, 7, 3, 4, 9], [1, 2, 8, 4, 1, 6, 1, 7, 0, 0, 6], [4, 0, 9, 1, 6, 0, 3, 2, 6, 1], [0, 0, 9
, 5, 4, 8, 1, 4, 3, 2, 1, 6], [7, 3, 2, 8, 7, 6, 6, 1, 5, 0, 3, 2, 4, 9], [1, 8, 6, 7, 4, 4, 0, 6, 1
, 9, 3, 2, 0], [5, 5, 4, 4, 2, 2, 8, 1, 9, 7, 0], [2, 0, 6, 9, 1, 0, 2, 1, 9, 4, 1, 6, 4], [2, 6, 6,
 2, 4, 0, 4, 0, 7, 8, 1, 2, 1]], 'wok': None}
